HUN,8,6,977
1,9,0,28,2,19,3,10,4,20,5,6
1,14,0,22,2,3,5,8,3,27,4,27
1,14,2,12,0,26,3,17,4,8,5,11
1,4,0,29,2,11,3,22,5,23,4,1
1,18,0,11,2,20,3,20,4,16,5,25
2,24,0,2,1,13,4,8,3,9,5,6
1,12,2,16,0,24,4,26,5,12,3,17
0,14,1,25,2,5,5,23,4,7,3,29
